p cnf 57 120
-9 1 0
-9 -2 0
-10 -1 0
-10 2 0
11 9 10 0
-12 3 0
-12 -4 0
-13 -3 0
-13 4 0
14 12 13 0
15 -11 -14 0
16 -5 6 0
17 5 -6 0
-18 -16 0
-18 -17 0
-19 5 0
-19 7 0
19 -5 -7 0
-20 3 0
-20 19 0
20 -3 -19 0
-21 3 0
-21 7 0
21 -3 -7 0
-22 1 0
-22 21 0
22 -1 -21 0
-23 -1 0
-23 -21 0
23 1 21 0
-24 -22 0
-24 -23 0
24 22 23 0
-25 20 0
-25 24 0
25 -20 -24 0
-26 -20 0
-26 -24 0
26 20 24 0
-27 -25 0
-27 -26 0
27 25 26 0
-28 5 0
-28 8 0
28 -5 -8 0
-29 27 0
-29 28 0
29 -27 -28 0
-30 -27 0
-30 -28 0
30 27 28 0
-31 -29 0
-31 -30 0
31 29 30 0
-32 6 0
-32 7 0
32 -6 -7 0
-33 4 0
-33 32 0
33 -4 -32 0
-34 4 0
-34 7 0
34 -4 -7 0
-35 2 0
-35 34 0
35 -2 -34 0
-36 -2 0
-36 -34 0
36 2 34 0
-37 -35 0
-37 -36 0
37 35 36 0
-38 33 0
-38 37 0
38 -33 -37 0
-39 -33 0
-39 -37 0
39 33 37 0
-40 -38 0
-40 -39 0
40 38 39 0
-41 6 0
-41 8 0
41 -6 -8 0
-42 40 0
-42 41 0
42 -40 -41 0
-43 -40 0
-43 -41 0
43 40 41 0
-44 -42 0
-44 -43 0
44 42 43 0
45 -31 44 0
46 31 -44 0
-47 -45 0
-47 -46 0
-48 -3 0
-48 -19 0
48 3 19 0
-49 -20 0
-49 -48 0
49 20 48 0
-50 -4 0
-50 -32 0
50 4 32 0
-51 -33 0
-51 -50 0
51 33 50 0
52 -49 51 0
53 49 -51 0
-54 -52 0
-54 -53 0
-55 47 0
-55 54 0
-56 18 0
-56 55 0
-57 -15 0
-57 56 0
57 0
